400, 39714
352, 352
178, 178
398, 398
163, 163
336, 336
279, 279
264, 264
128, 128
11, 11
22, 22
199, 199
111, 111
27, 27
44, 44
163, 163
381, 381
214, 214
386, 386
288, 288
31, 31
240, 240
126, 126
386, 386
358, 358
78, 78
394, 394
156, 156
144, 144
24, 24
348, 348
312, 312
251, 251
202, 202
181, 181
373, 373
85, 85
168, 168
262, 262
72, 72
112, 112
187, 187
139, 139
49, 49
17, 17
156, 156
267, 267
316, 316
151, 151
107, 107
344, 344
383, 383
168, 168
76, 76
369, 369
246, 246
7, 7
335, 335
280, 280
57, 57
322, 322
379, 379
253, 253
247, 247
312, 312
359, 359
168, 168
162, 162
360, 360
180, 180
246, 246
230, 230
356, 356
10, 10
363, 363
23, 23
101, 101
126, 126
342, 342
118, 118
151, 151
93, 93
162, 162
31, 31
213, 213
391, 391
72, 72
339, 339
224, 224
314, 314
82, 82
45, 45
360, 360
74, 74
171, 171
306, 306
29, 29
299, 299
258, 258
10, 10
63, 63
267, 267
45, 45
198, 198
370, 370
334, 334
233, 233
157, 157
318, 318
22, 22
304, 304
151, 151
354, 354
399, 399
164, 164
37, 37
392, 392
229, 229
263, 263
234, 234
340, 340
131, 131
333, 333
298, 298
182, 182
137, 137
25, 25
46, 46
223, 223
201, 201
148, 148
225, 225
112, 112
366, 366
285, 285
75, 75
157, 157
233, 233
170, 170
295, 295
305, 305
9, 9
188, 188
258, 258
331, 331
102, 102
129, 129
83, 83
246, 246
379, 379
274, 274
65, 65
151, 151
141, 141
301, 301
230, 230
319, 319
60, 60
29, 29
350, 350
240, 240
230, 230
213, 213
59, 59
333, 333
130, 130
92, 92
297, 297
90, 90
207, 207
321, 321
249, 249
274, 274
298, 298
208, 208
140, 140
311, 311
214, 214
253, 253
222, 222
339, 339
395, 395
109, 109
12, 12
94, 94
61, 61
21, 21
323, 323
137, 137
40, 40
346, 346
343, 343
150, 150
325, 325
246, 246
396, 396
267, 267
220, 220
268, 268
245, 245
203, 203
278, 278
35, 35
182, 182
212, 212
173, 173
351, 351
232, 232
104, 104
50, 50
77, 77
233, 233
339, 339
363, 363
172, 172
62, 62
11, 11
375, 375
393, 393
102, 102
262, 262
383, 383
147, 147
75, 75
5, 5
171, 171
46, 46
168, 168
381, 381
30, 30
307, 307
130, 130
374, 374
64, 64
340, 340
164, 164
269, 269
38, 38
396, 396
123, 123
180, 180
399, 399
213, 213
26, 26
378, 378
381, 381
339, 339
75, 75
101, 101
190, 190
382, 382
227, 227
42, 42
167, 167
46, 46
97, 97
271, 271
140, 140
367, 367
67, 67
201, 201
78, 78
3, 3
372, 372
47, 47
177, 177
54, 54
230, 230
15, 15
393, 393
221, 221
200, 200
94, 94
161, 161
8, 8
388, 388
107, 107
167, 167
87, 87
232, 232
77, 77
135, 135
312, 312
190, 190
43, 43
227, 227
206, 206
122, 122
282, 282
316, 316
269, 269
80, 80
65, 65
63, 63
386, 386
400, 400
216, 216
15, 15
256, 256
31, 31
367, 367
75, 75
85, 85
387, 387
219, 219
235, 235
171, 171
346, 346
171, 171
156, 156
122, 122
376, 376
217, 217
54, 54
234, 234
315, 315
43, 43
311, 311
391, 391
156, 156
89, 89
30, 30
109, 109
133, 133
346, 346
277, 277
163, 163
169, 169
343, 343
124, 124
116, 116
388, 388
161, 161
14, 14
136, 136
273, 273
286, 286
386, 386
337, 337
178, 178
62, 62
209, 209
17, 17
95, 95
28, 28
126, 126
233, 233
222, 222
191, 191
199, 199
108, 108
155, 155
145, 145
231, 231
355, 355
356, 356
343, 343
293, 293
377, 377
36, 36
223, 223
140, 140
262, 262
330, 330
120, 120
40, 40
345, 345
5, 5
59, 59
10, 10
335, 335
254, 254
23, 23
216, 216
128, 128
306, 306
154, 154
116, 116
40, 40
139, 139
91, 91
375, 375
211, 211
250, 250
148, 148
330, 330
2, 2
2, 2
190, 190
209, 209
298, 298
228, 228
164, 164
229, 229
91, 91
179, 179
26, 26
156, 156
142, 142
195, 195
198, 198
